c description: Random 3-CNF over 20 variables and 85 clauses
c generator: CNFgen (0.9.2)
c copyright: (C) 2012-2022 Massimo Lauria <massimo.lauria@uniroma1.it>
c url: https://massimolauria.net/cnfgen
c command line: cnfgen --output CNF_4.28/20_bit_85_652.cnf randkcnf 3 20 85
c
p cnf 20 85
4 -5 -6 0
7 9 11 0
-16 18 20 0
-5 15 17 0
-1 4 -17 0
-12 -18 20 0
-4 16 19 0
7 9 13 0
-1 14 -20 0
-11 12 18 0
5 -9 -13 0
-3 9 -12 0
-7 9 20 0
7 -15 -19 0
-5 -6 -16 0
9 -10 -18 0
-9 10 -13 0
2 8 -11 0
-3 4 -16 0
-10 11 18 0
2 8 -15 0
10 -11 -20 0
-5 -14 -18 0
8 -16 19 0
-2 -6 11 0
-7 14 -16 0
9 -10 20 0
6 8 13 0
13 -14 -19 0
-1 5 9 0
-1 -8 -17 0
-1 -16 18 0
9 -11 -15 0
1 4 9 0
-2 5 -7 0
1 -5 15 0
-9 10 -18 0
1 12 -14 0
-3 -5 19 0
4 -8 20 0
7 9 12 0
3 4 -15 0
-7 8 -20 0
1 19 20 0
2 9 -18 0
-6 -11 18 0
-5 -17 -18 0
10 15 19 0
-13 -14 -18 0
2 -4 19 0
3 4 -17 0
-2 8 -10 0
4 6 12 0
11 14 -19 0
-3 -14 -20 0
6 14 -20 0
11 16 -18 0
-5 12 -20 0
-6 -13 18 0
3 12 -18 0
-9 15 -16 0
1 -2 -20 0
-5 -10 -11 0
6 9 10 0
-2 17 19 0
1 7 -10 0
-4 -6 12 0
8 18 -20 0
-2 11 14 0
-4 -17 -18 0
-5 13 19 0
3 14 18 0
16 17 -18 0
-1 4 -7 0
-1 2 -20 0
-3 -6 14 0
12 16 -18 0
-1 -4 19 0
6 -14 17 0
2 9 13 0
4 -6 11 0
-4 -6 -9 0
-7 16 -19 0
-5 6 -10 0
10 14 20 0
